; Copyright (c) 2026 The RIINA Authors. All rights reserved.
; Auto-generated from 02_FORMAL/coq/properties/ClosedValueLemmas.v (11 validations)
; Generated by scripts/generate-full-stack.py
;
; Translation Validation for ClosedValueLemmas
; Layer 9: Verifies compiler backend preserves formal semantics.
; Each assertion checks source IR ≡ target code for a proven property.

(set-logic QF_LIA)
(set-option :produce-models true)

; IR node representation
(declare-sort IRNode 0)
(declare-sort TargetNode 0)

; closed_expr_cv: source semantics (matches Coq)
(declare-fun source_closed_expr_cv () Bool)
(declare-fun target_closed_expr_cv () Bool)
(assert (= source_closed_expr_cv target_closed_expr_cv))

; value_typed_closed: translation preserves property (matches Coq: Lemma)
(declare-fun source_value_typed_closed () Bool)
(declare-fun target_value_typed_closed () Bool)
(assert (= source_value_typed_closed target_value_typed_closed))

; closed_pair_cv: translation preserves property (matches Coq: Lemma)
(declare-fun source_closed_pair_cv () Bool)
(declare-fun target_closed_pair_cv () Bool)
(assert (= source_closed_pair_cv target_closed_pair_cv))

; closed_inl_cv: translation preserves property (matches Coq: Lemma)
(declare-fun source_closed_inl_cv () Bool)
(declare-fun target_closed_inl_cv () Bool)
(assert (= source_closed_inl_cv target_closed_inl_cv))

; closed_inr_cv: translation preserves property (matches Coq: Lemma)
(declare-fun source_closed_inr_cv () Bool)
(declare-fun target_closed_inr_cv () Bool)
(assert (= source_closed_inr_cv target_closed_inr_cv))

; closed_app_cv: translation preserves property (matches Coq: Lemma)
(declare-fun source_closed_app_cv () Bool)
(declare-fun target_closed_app_cv () Bool)
(assert (= source_closed_app_cv target_closed_app_cv))

; closed_unit_cv: translation preserves property (matches Coq: Lemma)
(declare-fun source_closed_unit_cv () Bool)
(declare-fun target_closed_unit_cv () Bool)
(assert (= source_closed_unit_cv target_closed_unit_cv))

; closed_bool_cv: translation preserves property (matches Coq: Lemma)
(declare-fun source_closed_bool_cv () Bool)
(declare-fun target_closed_bool_cv () Bool)
(assert (= source_closed_bool_cv target_closed_bool_cv))

; closed_int_cv: translation preserves property (matches Coq: Lemma)
(declare-fun source_closed_int_cv () Bool)
(declare-fun target_closed_int_cv () Bool)
(assert (= source_closed_int_cv target_closed_int_cv))

; closed_string_cv: translation preserves property (matches Coq: Lemma)
(declare-fun source_closed_string_cv () Bool)
(declare-fun target_closed_string_cv () Bool)
(assert (= source_closed_string_cv target_closed_string_cv))

; closed_loc_cv: translation preserves property (matches Coq: Lemma)
(declare-fun source_closed_loc_cv () Bool)
(declare-fun target_closed_loc_cv () Bool)
(assert (= source_closed_loc_cv target_closed_loc_cv))

; closed_lam_body_cv: translation preserves property (matches Coq: Lemma)
(declare-fun source_closed_lam_body_cv () Bool)
(declare-fun target_closed_lam_body_cv () Bool)
(assert (= source_closed_lam_body_cv target_closed_lam_body_cv))

; Verify all translation validations are satisfiable
(check-sat)
(exit)
